set USINES := A B;
set PAPIERS := inf moy sup;
set SEMAINES := 1 2 3;
param: cout :=
A 1000
B 2000
;

param production: inf moy sup :=
A 8 1 2
B 2 1 7
;

param demande: inf moy sup :=
1 16 10 20
2 18 8 14
3 22 9 23
;

param stock_initial :=
inf 4
moy 7
sup 0
;
